
Gurobi 11.0.3 (linux64) logging started Mon Aug 25 13:17:00 2025

Set parameter LogFile to value "/home/yihong/Coding/OR_SUC/SUC_epstheta_results_bigM100000_thread4/case24_ieee_rts_theta0.1_epsilon0.1_gurobi_seed230000_num_gen100_N_WDR50_load_scaling_factor1_ori_eps_T1quadra_cost_bc1.03.txt"
Set parameter TimeLimit to value 3600
Gurobi Optimizer version 11.0.3 build v11.0.3rc0 (linux64 - "Ubuntu 20.04.6 LTS")

CPU model: AMD EPYC 7532 32-Core Processor, instruction set [SSE2|AVX|AVX2]
Thread count: 64 physical cores, 128 logical processors, using up to 4 threads

Academic license 2399124 - for non-commercial use only - registered to yi___@ed.ac.uk
Optimize a model with 1871 rows, 1291 columns and 53206 nonzeros
Model fingerprint: 0x909e919f
Model has 100 quadratic constraints
Variable types: 1191 continuous, 100 integer (100 binary)
Coefficient statistics:
  Matrix range     [3e-04, 6e+01]
  QMatrix range    [2e-03, 8e-03]
  QLMatrix range   [3e-01, 6e+01]
  Objective range  [1e+00, 1e+00]
  Bounds range     [1e+00, 1e+00]
  RHS range        [1e+00, 8e+03]
Presolve removed 1625 rows and 750 columns
Presolve time: 0.01s
Presolved: 246 rows, 541 columns, 2090 nonzeros
Presolved model has 100 quadratic constraint(s)
Variable types: 441 continuous, 100 integer (100 binary)

Root relaxation: objective 8.801493e+02, 110 iterations, 0.00 seconds (0.00 work units)

    Nodes    |    Current Node    |     Objective Bounds      |     Work
 Expl Unexpl |  Obj  Depth IntInf | Incumbent    BestBd   Gap | It/Node Time

     0     0  880.14935    0    1          -  880.14935      -     -    0s
     0     0  983.52173    0   47          -  983.52173      -     -    0s
     0     0 6263.26829    0   33          - 6263.26829      -     -    0s
     0     0 14133.5569    0   13          - 14133.5569      -     -    0s
     0     0 14136.6608    0   13          - 14136.6608      -     -    0s
     0     0 14148.7829    0    1          - 14148.7829      -     -    0s
     0     0 14148.8230    0    1          - 14148.8230      -     -    0s
     0     0 14148.8230    0    1          - 14148.8230      -     -    0s
     0     2 14148.8230    0    1          - 14148.8230      -     -    0s
H   10     8                    14154.076124 14149.5814  0.03%   7.1    0s
*   10     8               3    14154.076124 14149.5814  0.03%   8.0    0s

Cutting planes:
  Gomory: 3
  Implied bound: 44
  MIR: 15
  Flow cover: 86

Explored 11 nodes (752 simplex iterations) in 0.19 seconds (0.07 work units)
Thread count was 4 (of 128 available processors)

Solution count 1: 14154.1 

Optimal solution found (tolerance 1.00e-03)
Warning: max constraint violation (2.4667e-09) exceeds tolerance
Best objective 1.415407612397e+04, best bound 1.414958141000e+04, gap 0.0318%

Gurobi 11.0.3 (linux64) logging started Mon Aug 25 13:17:00 2025

Set parameter LogFile to value "/home/yihong/Coding/OR_SUC/SUC_epstheta_results_bigM100000_thread4/case24_ieee_rts_theta0.1_epsilon0.1_gurobi_seed230000_num_gen100_N_WDR50_load_scaling_factor1_ori_eps_T1quadra_cost_bc1.03.txt"
Set parameter TimeLimit to value 3600
Gurobi Optimizer version 11.0.3 build v11.0.3rc0 (linux64 - "Ubuntu 20.04.6 LTS")

CPU model: AMD EPYC 7532 32-Core Processor, instruction set [SSE2|AVX|AVX2]
Thread count: 64 physical cores, 128 logical processors, using up to 4 threads

Academic license 2399124 - for non-commercial use only - registered to yi___@ed.ac.uk
Optimize a model with 5303 rows, 1292 columns and 424551 nonzeros
Model fingerprint: 0x4b228674
Model has 101 quadratic constraints
Variable types: 1192 continuous, 100 integer (100 binary)
Coefficient statistics:
  Matrix range     [3e-04, 6e+01]
  QMatrix range    [2e-03, 5e+01]
  QLMatrix range   [3e-01, 6e+01]
  Objective range  [1e+00, 1e+00]
  Bounds range     [1e-01, 1e+00]
  RHS range        [2e-01, 1e+04]
  QRHS range       [5e+00, 5e+00]
Presolve removed 1580 rows and 709 columns
Presolve time: 0.31s
Presolved: 3825 rows, 684 columns, 85338 nonzeros
Presolved model has 100 quadratic constraint(s)
Presolved model has 1 bilinear constraint(s)
Warning: Model contains variables with very large bounds participating
         in product terms.
         Presolve was not able to compute smaller bounds for these variables.
         Consider bounding these variables or reformulating the model.


Solving non-convex MIQCP

Variable types: 584 continuous, 100 integer (100 binary)

Root relaxation: objective 0.000000e+00, 235 iterations, 0.04 seconds (0.09 work units)

    Nodes    |    Current Node    |     Objective Bounds      |     Work
 Expl Unexpl |  Obj  Depth IntInf | Incumbent    BestBd   Gap | It/Node Time

     0     0    0.00000    0    4          -    0.00000      -     -    1s
     0     0    0.00019    0    3          -    0.00019      -     -    1s
     0     0    0.00019    0    2          -    0.00019      -     -    1s
     0     0    0.00019    0    2          -    0.00019      -     -    1s
     0     0    0.00019    0    2          -    0.00019      -     -    1s
     0     0    0.00019    0    2          -    0.00019      -     -    1s
     0     0    0.00091    0    2          -    0.00091      -     -    1s
H    0     0                       0.0671967    0.00091  98.6%     -    1s
H    0     0                       0.0588976    0.00091  98.4%     -    1s
     0     0    0.05750    0    2    0.05890    0.05750  2.38%     -    1s
     0     0    0.05750    0    2    0.05890    0.05750  2.37%     -    1s
     0     0    0.05750    0    2    0.05890    0.05750  2.37%     -    1s
     0     0    0.05750    0    3    0.05890    0.05750  2.37%     -    1s
     0     0    0.05750    0    2    0.05890    0.05750  2.37%     -    1s
H    0     0                       0.0583485    0.05758  1.32%     -    1s
     0     0    0.05826    0    2    0.05835    0.05826  0.16%     -    1s

Cutting planes:
  Implied bound: 3
  MIR: 2
  Flow cover: 1

Explored 1 nodes (585 simplex iterations) in 1.69 seconds (1.68 work units)
Thread count was 4 (of 128 available processors)

Solution count 3: 0.0583485 0.0588976 0.0671967 

Optimal solution found (tolerance 1.00e-03)
Best objective 5.834851203659e-02, best bound 5.834689118915e-02, gap 0.0028%
